0000000000000000
0000000000000000
0111111111111110
0111111111111110
0000000000111100
0000000000001100
0000000000001100
0000000000000100
0000000000000100
0000000000000100
0000000000000100
0000000000000100
0000000000000100
0000000000000100
0000000000000000
0000000000000000
